minizinc/instance_small.dzn
% instance_small.dzn
n_clients = 5;
n_hubs = 3;
d_max = 8;
P_min = 1;
P = 2;

q = [2, 3, 2, 3, 2];
w = [1.5, 1.0, 2.0, 1.0, 1.5];
f = [20.0, 25.0, 15.0];
o = [0.8, 1.2, 0.6];
L = [6, 8, 7];

d = [| 5, 9, 8
     | 7, 10, 9
     | 11, 12, 6
     | 10, 9, 7
     | 9, 11, 5 |];